<number of tasks>
30

<cycle time>
33

<task times>
1 8
2 7
3 19
4 10
5 2
6 6
7 14
8 10
9 1
10 4
11 14
12 15
13 5
14 12
15 9
16 10
17 2
18 10
19 18
20 16
21 21
22 14
23 16
24 7
25 17
26 9
27 25
28 7
29 14
30 2

<precedence relations>
1,4
1,5
2,11
2,12
3,16
3,17
4,7
5,6
6,7
7,8
8,9
9,26
10,24
12,13
13,14
14,15
14,20
15,22
16,20
17,18
18,19
20,21
20,24
21,22
22,23
23,27
24,25
25,26
26,27
27,28
27,29
29,30

<setup times forward>
1,3:3
1,4:4
1,5:5
1,10:5
1,11:6
1,12:4
1,13:2
1,14:2
1,15:3
1,16:2
1,17:3
1,18:3
1,20:2
1,21:5
1,22:6
1,23:6
1,24:1
1,25:1
2,3:3
2,4:4
2,5:5
2,6:5
2,7:3
2,8:3
2,9:6
2,10:5
2,11:6
2,12:4
2,16:2
2,17:3
2,18:3
3,1:3
3,2:3
3,4:1
3,5:2
3,6:2
3,9:3
3,10:2
3,11:3
3,12:1
3,13:1
3,14:1
3,16:1
4,2:4
4,3:1
4,5:1
4,6:1
4,7:1
4,10:1
4,11:2
4,13:2
4,14:2
4,15:1
4,16:2
4,17:1
4,18:1
4,19:4
4,20:2
4,21:1
4,22:2
4,23:2
4,24:3
4,25:3
5,2:5
5,3:2
5,4:1
5,11:1
5,12:1
5,13:3
5,14:3
5,15:2
5,16:3
5,17:2
5,18:2
5,19:5
5,20:3
5,22:1
5,23:1
5,24:4
5,25:4
6,2:5
6,3:2
6,4:1
6,7:2
6,11:1
6,12:1
6,13:3
6,14:3
6,15:2
6,16:3
6,17:2
6,18:2
6,19:5
6,20:3
6,22:1
6,23:1
6,24:4
6,25:4
7,2:3
7,10:2
7,11:3
7,12:1
7,13:1
7,14:1
7,16:1
7,19:3
7,20:1
7,21:2
7,22:3
7,23:3
7,24:2
7,25:2
8,2:3
8,9:3
8,10:2
8,11:3
8,12:1
8,13:1
8,14:1
8,16:1
8,19:3
8,20:1
8,21:2
8,22:3
8,23:3
8,24:2
8,25:2
9,2:6
9,3:3
9,10:1
9,12:2
9,13:4
9,14:4
9,15:3
9,16:4
9,17:3
9,18:3
9,19:6
9,20:4
9,21:1
9,24:5
9,25:5
9,26:5
10,1:5
10,2:5
10,3:2
10,4:1
10,7:2
10,8:2
10,9:1
10,11:1
10,12:1
10,13:3
10,14:3
10,15:2
10,16:3
10,17:2
10,18:2
10,19:5
10,20:3
10,22:1
10,23:1
10,24:4
11,1:6
11,3:3
11,4:2
11,5:1
11,6:1
11,7:3
11,8:3
11,10:1
11,12:2
11,13:4
11,14:4
11,15:3
11,16:4
11,17:3
11,18:3
11,19:6
11,20:4
11,21:1
11,24:5
11,25:5
11,26:5
11,27:2
11,28:2
12,1:4
12,3:1
12,5:1
12,6:1
12,7:1
12,8:1
12,9:2
12,10:1
12,11:2
12,13:2
12,16:2
12,17:1
12,18:1
12,19:4
13,1:2
13,3:1
13,4:2
13,5:3
13,6:3
13,7:1
13,8:1
13,9:4
13,10:3
13,11:4
13,17:1
13,18:1
13,19:2
14,1:2
14,3:1
14,4:2
14,5:3
14,6:3
14,7:1
14,8:1
14,9:4
14,10:3
14,11:4
14,15:1
14,17:1
14,18:1
14,19:2
15,1:3
15,4:1
15,5:2
15,6:2
15,9:3
15,10:2
15,11:3
15,16:1
15,19:3
15,20:1
15,21:2
15,22:3
15,24:2
15,25:2
15,26:2
16,1:2
16,2:2
16,4:2
16,5:3
16,6:3
16,7:1
16,8:1
16,9:4
16,10:3
16,11:4
16,12:2
16,15:1
16,17:1
16,18:1
16,19:2
17,1:3
17,2:3
17,4:1
17,5:2
17,6:2
17,9:3
17,10:2
17,11:3
17,12:1
17,13:1
17,14:1
17,16:1
17,20:1
17,21:2
17,22:3
17,23:3
17,24:2
17,25:2
17,26:2
17,27:1
17,28:1
17,29:3
17,30:3
18,1:3
18,2:3
18,4:1
18,5:2
18,6:2
18,9:3
18,10:2
18,11:3
18,12:1
18,13:1
18,14:1
18,16:1
18,19:3
18,20:1
18,21:2
18,22:3
18,23:3
18,24:2
18,25:2
18,26:2
18,27:1
18,28:1
18,29:3
18,30:3
19,4:4
19,5:5
19,6:5
19,7:3
19,8:3
19,9:6
19,10:5
19,11:6
19,12:4
19,13:2
19,14:2
19,15:3
19,16:2
19,20:2
19,21:5
19,22:6
19,23:6
19,24:1
19,25:1
19,26:1
19,27:4
19,28:4
19,29:6
19,30:6
20,1:2
20,4:2
20,5:3
20,6:3
20,7:1
20,8:1
20,9:4
20,10:3
20,11:4
20,15:1
20,17:1
20,18:1
20,19:2
20,21:3
20,24:1
21,1:5
21,4:1
21,7:2
21,8:2
21,9:1
21,11:1
21,15:2
21,17:2
21,18:2
21,19:5
21,22:1
21,24:4
21,25:4
21,26:4
22,1:6
22,4:2
22,5:1
22,6:1
22,7:3
22,8:3
22,10:1
22,17:3
22,18:3
22,19:6
22,24:5
22,25:5
22,26:5
23,1:6
23,4:2
23,5:1
23,6:1
23,7:3
23,8:3
23,10:1
23,17:3
23,18:3
23,19:6
23,24:5
23,25:5
23,26:5
23,27:2
24,1:1
24,4:3
24,5:4
24,6:4
24,7:2
24,8:2
24,9:5
24,11:5
24,15:2
24,17:2
24,18:2
24,19:1
24,21:4
24,22:5
24,23:5
25,1:1
25,4:3
25,5:4
25,6:4
25,7:2
25,8:2
25,9:5
25,11:5
25,15:2
25,17:2
25,18:2
25,19:1
25,21:4
25,22:5
25,23:5
26,11:5
26,15:2
26,17:2
26,18:2
26,19:1
26,21:4
26,22:5
26,23:5
26,27:3
27,11:2
27,17:1
27,18:1
27,19:4
27,29:2
28,11:2
28,17:1
28,18:1
28,19:4
28,29:2
28,30:2
29,17:3
29,18:3
29,19:6
29,28:2
30,17:3
30,18:3
30,19:6
30,28:2

<setup times backward>
1,3:3
1,10:5
1,11:6
1,12:4
1,13:2
1,14:2
1,15:3
1,16:2
1,17:3
1,18:3
1,20:2
1,21:5
1,22:6
1,23:6
1,24:1
1,25:1
2,3:3
2,4:4
2,5:5
2,6:5
2,7:3
2,8:3
2,9:6
2,10:5
2,16:2
2,17:3
2,18:3
3,4:1
3,5:2
3,6:2
3,9:3
3,10:2
3,11:3
3,12:1
4,5:1
4,6:1
4,10:1
4,11:2
4,21:1
4,22:2
4,23:2
5,11:1
5,22:1
5,23:1
6,11:1
6,22:1
6,23:1
7,4:1
7,5:2
7,6:2
7,10:2
7,11:3
7,12:1
7,21:2
7,22:3
7,23:3
8,4:1
8,5:2
8,6:2
8,10:2
8,11:3
8,12:1
8,21:2
8,22:3
8,23:3
10,9:1
10,11:1
10,22:1
10,23:1
12,5:1
12,6:1
12,9:2
12,10:1
12,11:2
13,3:1
13,4:2
13,5:3
13,6:3
13,7:1
13,8:1
13,9:4
13,10:3
13,11:4
13,12:2
13,17:1
13,18:1
14,3:1
14,4:2
14,5:3
14,6:3
14,7:1
14,8:1
14,9:4
14,10:3
14,11:4
14,12:2
14,17:1
14,18:1
15,4:1
15,5:2
15,6:2
15,9:3
15,10:2
15,11:3
15,12:1
15,21:2
16,3:1
16,4:2
16,5:3
16,6:3
16,7:1
16,8:1
16,9:4
16,10:3
16,11:4
16,12:2
16,15:1
16,17:1
16,18:1
17,4:1
17,5:2
17,6:2
17,9:3
17,10:2
17,11:3
17,12:1
17,21:2
17,22:3
17,23:3
17,27:1
17,28:1
17,29:3
17,30:3
18,4:1
18,5:2
18,6:2
18,9:3
18,10:2
18,11:3
18,12:1
18,21:2
18,22:3
18,23:3
18,27:1
18,28:1
18,29:3
18,30:3
19,3:3
19,4:4
19,5:5
19,6:5
19,7:3
19,8:3
19,9:6
19,10:5
19,11:6
19,12:4
19,13:2
19,14:2
19,15:3
19,16:2
19,17:3
19,18:3
19,20:2
19,21:5
19,22:6
19,23:6
19,24:1
19,25:1
19,26:1
19,27:4
19,28:4
19,29:6
19,30:6
20,3:1
20,4:2
20,5:3
20,6:3
20,7:1
20,8:1
20,9:4
20,10:3
20,11:4
20,12:2
20,15:1
20,17:1
20,18:1
21,9:1
21,11:1
24,3:2
24,4:3
24,5:4
24,6:4
24,7:2
24,8:2
24,9:5
24,10:4
24,11:5
24,12:3
24,13:1
24,14:1
24,15:2
24,16:1
24,17:2
24,18:2
24,20:1
24,21:4
24,22:5
24,23:5
25,3:2
25,4:3
25,5:4
25,6:4
25,7:2
25,8:2
25,9:5
25,10:4
25,11:5
25,12:3
25,13:1
25,14:1
25,15:2
25,16:1
25,17:2
25,18:2
25,20:1
25,21:4
25,22:5
25,23:5
26,3:2
26,4:3
26,5:4
26,6:4
26,7:2
26,8:2
26,9:5
26,10:4
26,11:5
26,12:3
26,13:1
26,14:1
26,15:2
26,16:1
26,17:2
26,18:2
26,20:1
26,21:4
26,22:5
26,23:5
27,5:1
27,6:1
27,9:2
27,10:1
27,11:2
27,21:1
27,22:2
27,23:2
28,5:1
28,6:1
28,9:2
28,10:1
28,11:2
28,21:1
28,22:2
28,23:2
28,29:2
28,30:2

<end>

<optimal SALBP-1 value>
11


<rand seed>
467321153

